
Gurobi 11.0.0 (linux64) logging started Thu Dec  5 15:06:00 2024

Set parameter LogFile to value "gurobi.log"
Set parameter InfUnbdInfo to value 1
Gurobi Optimizer version 11.0.0 build v11.0.0rc2 (linux64 - "Ubuntu 22.04.4 LTS")

CPU model: AMD EPYC 7V13 64-Core Processor, instruction set [SSE2|AVX|AVX2]
Thread count: 128 physical cores, 128 logical processors, using up to 32 threads

Optimize a model with 97 rows, 348 columns and 272 nonzeros
Model fingerprint: 0x63df2090
Model has 242 quadratic constraints
Model has 35 general constraints
Variable types: 72 continuous, 276 integer (0 binary)
Coefficient statistics:
  Matrix range     [1e+00, 2e+01]
  QMatrix range    [1e+00, 2e+02]
  QLMatrix range   [1e+00, 1e+00]
  Objective range  [1e+00, 1e+00]
  Bounds range     [1e+00, 2e+06]
  RHS range        [1e+00, 2e+06]
  QRHS range       [2e+02, 9e+03]
Using branch priorities (all 0).
Presolve added 89 rows and 54 columns
Presolve time: 0.01s
Presolved: 832 rows, 723 columns, 3152 nonzeros
Presolved model has 208 SOS constraint(s)
Presolved model has 69 bilinear constraint(s)
Warning: Model contains variables with very large bounds participating
         in product terms.
         Presolve was not able to compute smaller bounds for these variables.
         Consider bounding these variables or reformulating the model.


Solving non-convex MIQCP

Variable types: 198 continuous, 525 integer (179 binary)

Root relaxation: objective 6.149345e+01, 273 iterations, 0.00 seconds (0.00 work units)

    Nodes    |    Current Node    |     Objective Bounds      |     Work
 Expl Unexpl |  Obj  Depth IntInf | Incumbent    BestBd   Gap | It/Node Time

     0     0   61.49345    0  154          -   61.49345      -     -    0s
     0     0   61.49475    0  141          -   61.49475      -     -    0s
H    0     0                    323152.09272   61.49475   100%     -    0s
     0     0  143.77616    0  239 323152.093  143.77616   100%     -    0s
     0     0  143.77616    0  239 323152.093  143.77616   100%     -    0s
     0     0  180.97924    0  265 323152.093  180.97924   100%     -    0s
     0     0  181.55948    0  266 323152.093  181.55948   100%     -    0s
     0     0  193.88661    0  273 323152.093  193.88661   100%     -    0s
     0     0  198.21227    0  268 323152.093  198.21227   100%     -    0s
     0     0  241.58354    0  263 323152.093  241.58354   100%     -    0s
     0     0  245.14850    0  258 323152.093  245.14850   100%     -    0s
     0     0  258.44679    0  277 323152.093  258.44679   100%     -    0s
     0     0  278.35168    0  294 323152.093  278.35168   100%     -    0s
     0     0  383.39951    0  280 323152.093  383.39951   100%     -    0s
     0     0  488.66142    0  271 323152.093  488.66142   100%     -    0s
     0     0  579.30336    0  158 323152.093  579.30336   100%     -    0s
     0     0  723.75953    0  178 323152.093  723.75953   100%     -    0s
     0     0  766.66159    0  213 323152.093  766.66159   100%     -    0s
     0     0  770.57287    0  193 323152.093  770.57287   100%     -    0s
     0     0  926.33303    0  216 323152.093  926.33303   100%     -    0s
     0     0 1091.20271    0  196 323152.093 1091.20271   100%     -    0s
     0     0 1222.85954    0  200 323152.093 1222.85954   100%     -    0s
     0     0 1272.44257    0  202 323152.093 1272.44257   100%     -    0s
     0     0 1279.67100    0  199 323152.093 1279.67100   100%     -    0s
     0     0 1312.82073    0  188 323152.093 1312.82073   100%     -    0s
     0     0 1312.82073    0  195 323152.093 1312.82073   100%     -    0s
     0     0 1798.76446    0  198 323152.093 1798.76446  99.4%     -    0s
     0     0 1798.76446    0  199 323152.093 1798.76446  99.4%     -    0s
     0     0 2050.96741    0  190 323152.093 2050.96741  99.4%     -    0s
     0     0 2223.14743    0  185 323152.093 2223.14743  99.3%     -    0s
     0     0 2223.14743    0  196 323152.093 2223.14743  99.3%     -    0s
     0     0 2265.65031    0  195 323152.093 2265.65031  99.3%     -    0s
     0     0 2338.53341    0   65 323152.093 2338.53341  99.3%     -    0s
     0     0 2338.53341    0   84 323152.093 2338.53341  99.3%     -    0s
     0     0 2338.53341    0  171 323152.093 2338.53341  99.3%     -    0s
     0     0 2338.53341    0  195 323152.093 2338.53341  99.3%     -    0s
     0     0 2438.40196    0  180 323152.093 2438.40196  99.2%     -    0s
H    0     0                    245458.51310 2438.40196  99.0%     -    0s
     0     0 2596.11735    0  190 245458.513 2596.11735  98.9%     -    0s
     0     0 3043.91599    0   93 245458.513 3043.91599  98.8%     -    0s
     0     0 3199.50242    0  158 245458.513 3199.50242  98.7%     -    0s
     0     0 3377.79043    0  236 245458.513 3377.79043  98.6%     -    0s
H    0     0                    89861.555898 3513.23748  96.1%     -    0s
     0     0 3513.23748    0  223 89861.5559 3513.23748  96.1%     -    0s
     0     0 3601.32395    0  188 89861.5559 3601.32395  96.0%     -    0s
     0     0 3653.33922    0  239 89861.5559 3653.33922  95.9%     -    0s
     0     0 3744.71000    0  236 89861.5559 3744.71000  95.8%     -    0s
     0     0 3767.16370    0  233 89861.5559 3767.16370  95.8%     -    0s
     0     0 3842.30254    0  233 89861.5559 3842.30254  95.7%     -    0s
     0     0 3842.64909    0  225 89861.5559 3842.64909  95.7%     -    0s
     0     0 3911.17200    0  234 89861.5559 3911.17200  95.6%     -    0s
     0     0 4058.90520    0  208 89861.5559 4058.90520  95.5%     -    0s
     0     0 4260.33833    0  186 89861.5559 4260.33833  95.3%     -    0s
     0     0 4302.55484    0  240 89861.5559 4302.55484  95.2%     -    0s
     0     0 4337.63551    0  248 89861.5559 4337.63551  95.2%     -    0s
     0     0 4374.29317    0  224 89861.5559 4374.29317  95.1%     -    0s
     0     0 4435.19260    0  231 89861.5559 4435.19260  95.1%     -    0s
     0     0 4489.81357    0  201 89861.5559 4489.81357  95.0%     -    0s
     0     0 4579.40972    0  213 89861.5559 4579.40972  94.9%     -    0s
     0     0 4651.97323    0  189 89861.5559 4651.97323  94.8%     -    0s
     0     0 4752.40092    0  173 89861.5559 4752.40092  94.7%     -    0s
H    0     0                    42771.575984 4930.56093  88.5%     -    0s
     0     0 4930.56093    0  201 42771.5760 4930.56093  88.5%     -    0s
     0     0 5041.72631    0  180 42771.5760 5041.72631  88.2%     -    0s
     0     0 5063.50497    0  221 42771.5760 5063.50497  88.2%     -    0s
     0     0 5179.41602    0  219 42771.5760 5179.41602  87.9%     -    0s
     0     0 5295.07893    0  237 42771.5760 5295.07893  87.6%     -    0s
     0     0 5474.17032    0  226 42771.5760 5474.17032  87.2%     -    0s
     0     0 5584.23905    0  233 42771.5760 5584.23905  86.9%     -    0s
     0     0 5714.54331    0  201 42771.5760 5714.54331  86.6%     -    0s
     0     0 5916.02905    0  201 42771.5760 5916.02905  86.2%     -    0s
     0     0 6024.25999    0  199 42771.5760 6024.25999  85.9%     -    1s
     0     0 6024.25999    0  200 42771.5760 6024.25999  85.9%     -    1s
     0     0 6130.96374    0  190 42771.5760 6130.96374  85.7%     -    1s
     0     0 6197.86839    0  201 42771.5760 6197.86839  85.5%     -    1s
     0     0 6218.12809    0  201 42771.5760 6218.12809  85.5%     -    1s
     0     0 6218.12809    0  201 42771.5760 6218.12809  85.5%     -    1s
     0     0 6218.12809    0  201 42771.5760 6218.12809  85.5%     -    1s
     0     0 6653.30142    0   75 42771.5760 6653.30142  84.4%     -    1s
H    0     0                    42771.513484 6653.30142  84.4%     -    1s
H    0     0                    40525.458451 6653.30142  83.6%     -    1s
     0     0 6653.30142    0   69 40525.4585 6653.30142  83.6%     -    1s
     0     0 6653.30142    0   91 40525.4585 6653.30142  83.6%     -    1s
     0     0 6653.30142    0   91 40525.4585 6653.30142  83.6%     -    1s
     0     0 6653.30142    0   97 40525.4585 6653.30142  83.6%     -    1s
     0     0 6653.30142    0   39 40525.4585 6653.30142  83.6%     -    1s
     0     0 6653.30142    0   39 40525.4585 6653.30142  83.6%     -    1s
     0     0 6653.30142    0   59 40525.4585 6653.30142  83.6%     -    2s
     0     0 6653.30142    0   58 40525.4585 6653.30142  83.6%     -    2s
     0     0 6653.30142    0   35 40525.4585 6653.30142  83.6%     -    2s
     0     0 6653.30142    0   60 40525.4585 6653.30142  83.6%     -    2s
     0     0 6653.30142    0   53 40525.4585 6653.30142  83.6%     -    2s
     0     0 6653.30142    0   55 40525.4585 6653.30142  83.6%     -    2s
     0     2 6653.30142    0   51 40525.4585 6653.30142  83.6%     -    3s
H  266   171                    40516.895951 6653.30142  83.6%  22.6    4s
H  438   256                    37934.263751 6653.30142  82.5%  20.4    4s
H  487   277                    37934.076251 6653.30142  82.5%  20.3    4s
   564   331 29345.9576   19   18 37934.0763 6653.30142  82.5%  19.6    5s
H  572   331                    37934.076247 6653.30142  82.5%  19.5    5s
H  676   331                    37764.511616 6653.30142  82.4%  18.6    5s
H  676   331                    37083.069458 6653.30142  82.1%  18.6    5s
H  867   446                    36443.511616 6653.30142  81.7%  17.0    5s
H 1012   446                    33969.096705 6653.30142  80.4%  16.7    5s
* 1040   446              28    33103.356114 6653.30142  79.9%  16.6    5s
H 1303   591                    29760.617050 6653.30142  77.6%  17.4    6s
H 1529   640                    29760.367050 6653.30142  77.6%  16.9    6s
* 1531   640              36    28413.613516 6653.30142  76.6%  16.9    6s
H 2403   742                    27921.510939 6653.30142  76.2%  17.0    7s
* 2456   742              23    27701.277372 6653.30142  76.0%  16.9    7s
H 2738   809                    26220.020539 6653.30142  74.6%  17.0    8s
* 2749   809              36    26219.833039 6653.30142  74.6%  17.0    8s
* 2977   809              28    25897.798180 6653.30142  74.3%  16.6    8s
H 4008   824                    25693.460191 6653.30142  74.1%  16.1    9s
  4067   907 18027.7571   22  136 25693.4602 6653.30142  74.1%  16.1   10s
* 4165   907              47    25108.618188 6653.30142  73.5%  16.1   10s
H 4542   907                    25071.342128 6653.30142  73.5%  16.0   10s
* 4865   850              31    25070.904628 6653.30142  73.5%  16.1   10s
* 4978   850              45    24210.893733 6653.30142  72.5%  15.8   10s
* 5625   636              24    24173.617673 6653.30142  72.5%  15.4   11s
* 5906   563              27    24173.180173 6653.30142  72.5%  15.1   12s
* 6239   563              46    24067.182701 6653.30142  72.4%  15.0   12s
* 6435   563              48    23972.430372 6653.30142  72.2%  14.8   12s
H 6437   563                    23867.305372 6653.30142  72.1%  14.8   12s
H 6439   285                    23867.180372 6653.30142  72.1%  14.8   12s
H 6689   285                    23814.742872 6653.30142  72.1%  14.7   12s
* 6817   285              46    23814.617872 6653.30142  72.1%  14.5   12s
* 7133   209              48    23738.307701 6653.30142  72.0%  14.4   13s
* 7139   209              46    23594.307701 6653.30142  71.8%  14.4   13s
* 7140   209              45    23515.495201 6653.30142  71.7%  14.4   13s
  8298    17 infeasible   42      23515.4952 12646.9103  46.2%  14.0   15s

Cutting planes:
  Learned: 1
  Gomory: 3
  Cover: 8
  Implied bound: 214
  Clique: 2
  MIR: 39
  StrongCG: 1
  Flow cover: 15
  Inf proof: 10
  RLT: 38
  Relax-and-lift: 12

Explored 8461 nodes (124454 simplex iterations) in 15.98 seconds (1.14 work units)
Thread count was 32 (of 128 available processors)

Solution count 10: 23515.5 23594.3 23738.3 ... 24173.2

Optimal solution found (tolerance 1.00e-04)
Warning: max constraint violation (1.3601e-03) exceeds tolerance
Warning: max general constraint violation (1.3601e-03) exceeds tolerance
  Piecewise linearization of function constraints often causes big violation.
  Try to adjust the settings of the related parameters, such as FuncPieces.
Best objective 2.351549520093e+04, best bound 2.351549520093e+04, gap 0.0000%
